(declare-const conc0 Real)
(assert (and (>= conc0 0) (<= conc0 100)))
(declare-const conc1 Real)
(assert (and (>= conc1 0) (<= conc1 100)))
(declare-const conc2 Real)
(assert (and (>= conc2 0) (<= conc2 100)))
(declare-const conc3 Real)
(assert (and (>= conc3 0) (<= conc3 100)))
(declare-const conc4 Real)
(assert (and (>= conc4 0) (<= conc4 100)))
(declare-const conc5 Real)
(assert (and (>= conc5 0) (<= conc5 100)))
(declare-const conc6 Real)
(assert (and (>= conc6 0) (<= conc6 100)))
(declare-const coef0 Real)
(assert (= coef0 (- (* 0.0005634210 conc0 conc6 ) (* 0.3678794503 conc2 ))))
(declare-const coef1 Real)
(assert (= coef1 (- (* 0.3678794503 conc2 conc1 ) (* 0.0003890306 conc3 ))))
(declare-const coef2 Real)
(assert (= coef2 (- (* 0.3678794503 conc0 conc4 ) (* 0.1753906012 conc3 ))))
(declare-const coef3 Real)
(assert (= coef3 (- (* 0.3678794503 conc4 conc1 ) (* 0.0577372685 conc5 ))))
(declare-const coef4 Real)
(assert (= coef4 (- (* 0.3678794503 conc6 conc6 ) (* 0.1006307825 conc5 ))))
(assert (> (+ coef0 (- coef1) 0) 0.0001000000))
(assert (> (+ coef1 coef2 0) 0.0001000000))
(assert (> (+ (- coef2) (- coef3) 0) 0.0001000000))
(assert (> (+ coef3 coef4 0) 0.0001000000))
(assert (> (+ (- coef0) (- coef4) (- coef4) 0) 0.0001000000))
(check-sat)
(get-model)
